s td 15 56 70
b 1 1 2 3 4 5 6 7 8 9 10 12 13 14 15 17 19 21 23 25 26 27 28 29 30 31 32 33 35 36 37 39 40 42 43 44 45 46 47 48 49 50 52 53 54 55 57 58 59 60 62 64 65 66 67 68 70
b 2 1 2 4 5 6 7 8 9 10 12 13 14 15 17 19 20 21 23 25 26 27 28 29 30 31 32 33 35 36 37 39 40 42 43 44 45 46 47 48 49 50 52 53 54 55 57 58 59 60 62 64 65 66 67 68 70
b 3 1 2 4 5 6 7 8 9 10 12 13 14 15 17 19 20 21 23 24 25 26 27 28 29 30 31 32 33 35 36 37 39 40 42 43 44 45 46 47 48 49 50 52 53 54 55 57 58 59 60 62 64 65 66 67 70
b 4 1 2 4 5 6 7 8 9 10 12 14 15 17 19 20 21 23 24 25 26 27 28 29 30 31 32 33 35 36 37 40 42 43 44 46 47 48 49 50 51 53 54 55 57 58 59 60 62 64 65 66 67 70
b 5 1 4 6 7 10 11 12 14 17 23 24 29 30 37 43 44 47 49 50 51 54 55 58 62 65 66 67
b 6 4 6 7 8 9 17 18 20 21 23 24 25 28 33 42 44 46 48 49 50 51 55 59 60 64 66 67
b 7 2 8 9 10 12 17 19 24 26 27 28 29 32 33 36 37 40 44 47 48 50 51 53 54 58 59 60 62 63 65 66
b 8 1 2 5 6 8 9 10 13 14 15 17 19 20 23 24 25 26 27 28 29 30 31 32 33 35 36 37 39 40 42 43 44 45 46 47 48 49 50 52 54 55 57 60 61 62 64 65 66 67 70
b 9 1 2 5 6 9 10 13 15 16 17 19 25 26 28 29 30 35 36 37 39 40 43 44 45 46 47 48 52 54 55 57 60 61 62 64 65 67 70
b 10 2 4 5 6 7 10 12 13 14 17 20 21 24 27 28 29 30 31 32 33 36 42 43 45 46 48 49 53 54 55 56 57 59 65 67
b 11 1 2 3 4 5 7 8 9 10 12 13 14 15 17 19 21 23 25 26 27 28 29 30 31 32 33 35 36 37 39 40 41 42 43 44 45 46 47 48 49 50 52 53 54 55 57 58 59 60 62 64 65 66 67 68 70
b 12 1 2 3 4 5 7 8 9 10 12 13 14 15 17 21 23 25 26 27 28 29 30 31 32 33 34 35 36 37 39 40 41 42 43 44 45 46 48 49 50 52 53 54 55 57 58 59 60 62 64 65 66 67 68 70
b 13 1 2 3 4 5 7 8 9 10 12 13 14 15 21 25 27 28 29 30 31 32 33 34 35 36 37 39 40 41 42 43 44 45 46 48 49 50 52 53 54 58 60 62 64 65 67 68 69 70
b 14 1 3 4 5 8 9 10 12 14 15 22 27 29 30 33 35 36 39 40 43 45 48 49 50 52 53 58 64 65 68 69 70
b 15 2 4 6 7 10 13 15 17 21 26 27 29 35 36 37 38 43 45 46 49 50 53 54 55 57 58 60 64 68
1 2
1 11
1 15
2 3
3 4
3 8
3 10
4 5
4 6
4 7
8 9
11 12
12 13
13 14
